(set-info :smt-lib-version 2.6)
(set-logic QF_BV)
(set-info :source |
 Patrice Godefroid, SAGE (systematic dynamic test generation)
 For more information: http://research.microsoft.com/en-us/um/people/pg/public_psfiles/ndss2008.pdf
|)
(set-info :category "industrial")
(set-info :status sat)
(declare-fun T1_19414 () (_ BitVec 8))
(declare-fun T1_19347 () (_ BitVec 8))
(declare-fun T1_19281 () (_ BitVec 8))
(declare-fun T1_19225 () (_ BitVec 8))
(declare-fun T1_19221 () (_ BitVec 8))
(declare-fun T2_18829 () (_ BitVec 16))
(declare-fun T1_18820 () (_ BitVec 8))
(declare-fun T1_19484 () (_ BitVec 8))
(declare-fun T2_19223 () (_ BitVec 16))
(declare-fun T4_18821 () (_ BitVec 32))
(declare-fun T1_19223 () (_ BitVec 8))
(declare-fun T1_19224 () (_ BitVec 8))
(declare-fun T1_18829 () (_ BitVec 8))
(declare-fun T1_18830 () (_ BitVec 8))
(declare-fun T1_18821 () (_ BitVec 8))
(declare-fun T1_18822 () (_ BitVec 8))
(declare-fun T1_18823 () (_ BitVec 8))
(declare-fun T1_18824 () (_ BitVec 8))
(assert (let ((?v_9 ((_ zero_extend 24) T1_19414)) (?v_8 ((_ zero_extend 24) T1_19347)) (?v_0 ((_ zero_extend 24) (_ bv1 8))) (?v_7 ((_ zero_extend 24) T1_19281)) (?v_6 ((_ zero_extend 24) T1_19225)) (?v_4 ((_ zero_extend 24) T1_19221)) (?v_3 ((_ zero_extend 16) T2_18829)) (?v_2 (bvsub ((_ zero_extend 24) T1_18820) (_ bv8 32)))) (let ((?v_10 (bvadd (bvadd (bvadd (bvadd (bvadd (bvadd (bvadd (bvadd ?v_2 (_ bv4286534 32)) ?v_3) (_ bv7 32)) ?v_4) (_ bv3 32)) ?v_6) ?v_0) ?v_7))) (let ((?v_1 (bvsub (bvadd (bvadd ?v_10 ?v_0) ?v_8) (_ bv4286503 32)))) (let ((?v_13 (bvsub (bvadd (bvadd ?v_1 (_ bv4286504 32)) ?v_9) (_ bv1 32))) (?v_11 (bvsub ?v_10 (_ bv4286503 32)))) (let ((?v_12 (bvsub (bvadd (bvadd ?v_11 (_ bv4286504 32)) ?v_8) (_ bv1 32))) (?v_5 ((_ zero_extend 16) T2_19223))) (and true (= T4_18821 (bvor (bvshl (bvor (bvshl (bvor (bvshl ((_ zero_extend 24) T1_18824) (_ bv8 32)) ((_ zero_extend 24) T1_18823)) (_ bv8 32)) ((_ zero_extend 24) T1_18822)) (_ bv8 32)) ((_ zero_extend 24) T1_18821))) (= T2_18829 (bvor (bvshl ((_ zero_extend 8) T1_18830) (_ bv8 16)) ((_ zero_extend 8) T1_18829))) (= T2_19223 (bvor (bvshl ((_ zero_extend 8) T1_19224) (_ bv8 16)) ((_ zero_extend 8) T1_19223))) (bvule ?v_13 (bvadd ?v_1 (_ bv4286560 32))) (not (= (bvadd (bvadd ?v_2 (_ bv30 32)) (_ bv4286504 32)) (_ bv0 32))) (bvult (_ bv0 32) ?v_3) (not (= ?v_3 (_ bv0 32))) (= T4_18821 ?v_3) (= ?v_4 (_ bv1 32)) (not (= ?v_5 (_ bv0 32))) (= (bvadd (bvadd (bvadd (bvadd (bvadd ?v_5 (bvsub (_ bv4294967295 32) ?v_6)) (bvsub (_ bv4294967295 32) ?v_7)) (bvsub (_ bv4294967295 32) ?v_8)) (bvsub (_ bv4294967295 32) ?v_9)) (bvsub (_ bv4294967295 32) ((_ zero_extend 24) T1_19484))) (_ bv0 32)) (bvult (bvadd ?v_11 (_ bv4286560 32)) ?v_12) (bvult (bvadd ?v_11 (_ bv4286550 32)) ?v_12) (bvult (bvadd ?v_1 (_ bv4286554 32)) ?v_13))))))))
(check-sat)
(exit)
